
--- Job bchfcnet.gms Start 02/08/22 17:02:55 34.3.0 rac355f3 WEX-WEI x86 64bit/MS Windows
--- Applying:
    C:\GAMS\34\gmsprmNT.txt
--- GAMS Parameters defined
    Input C:\Users\dekhi\Desktop\gamsworld\FCNetLib\test\bchfcnet.gms
    PageSize 0
    ScrDir C:\Users\dekhi\Desktop\gamsworld\FCNetLib\test\225a\
    SysDir C:\GAMS\34\
    LogOption 3
    ErrMsg 1
    ErrorLog 99
    IDE 1
    ResLim 3600
    LstTitleLeftAligned 1
Licensee: Eval License                                   S211214|0002AW-GEN
          Ostfalia Hochschule fuer angewandte Wissenschaften        DCE1645
          C:\Users\dekhi\Documents\GAMS\gamslice.txt
          License Admin: Mohamed Ali Dekhil, dekhil.medali@gmail.com       
          Evaluation license: Not for commercial or production use
GAMS 34.3.0   Copyright (C) 1987-2021 GAMS Development. All rights reserved
--- Starting compilation
--- bchfcnet.gms(34) 2 Mb
--- . decl.gms(15) 2 Mb
--- bchfcnet.gms(38) 2 Mb
--- . h50x2450e.inc(135) 3 Mb
--- bchfcnet.gms(67) 3 Mb
--- . equs.gms(20) 3 Mb
--- bchfcnet.gms(97) 3 Mb
--- call rm -f bchout_i.gdx startcut.txt startheur.txt cuthist.gdx agap.txt rgap.txt cntfail.txt
--- bchfcnet.gms(118) 3 Mb
--- Starting execution: elapsed 0:00:00.088
--- bchfcnet.gms(193) 5 Mb
--- GDX File (execute_unload) C:\Users\dekhi\Desktop\gamsworld\FCNetLib\test\net.gdx
--- bchfcnet.gms(284) 5 Mb
--- GDXin=C:\Users\dekhi\Desktop\gamsworld\FCNetLib\test\points\h50x2450e.gdx
--- bchfcnet.gms(284) 5 Mb
--- GDX File (execute_load) C:\Users\dekhi\Desktop\gamsworld\FCNetLib\test\points\h50x2450e.gdx
--- Generating MIP model master
--- bchfcnet.gms(288) 7 Mb
---   2,550 rows  4,901 columns  17,053 non-zeroes
---   2,450 discrete-columns
--- Executing CPLEX (Solvelink=2): elapsed 0:00:00.191

IBM ILOG CPLEX   34.3.0 rac355f3 Released Feb 25, 2021 WEI x86 64bit/MS Window

--- GAMS/Cplex Link licensed for continuous and discrete problems.

Reading parameter(s) from "C:\Users\dekhi\Desktop\gamsworld\FCNetLib\test\cplex.op2"
>>  mipstart 1
Finished reading from "C:\Users\dekhi\Desktop\gamsworld\FCNetLib\test\cplex.op2"

--- Space for names approximately 0.16 Mb
--- Use option 'names no' to turn use of names off
--- GMO memory 1.86 Mb (peak 1.90 Mb)
--- Dictionary memory 0.00 Mb
--- Cplex 20.1.0.0 link memory 0.12 Mb (peak 0.54 Mb)
--- Starting Cplex

Version identifier: 20.1.0.0 | 2020-11-10 | 9bedb6d68
CPXPARAM_Threads                                 1
CPXPARAM_MIP_Display                             4
CPXPARAM_TimeLimit                               3600
CPXPARAM_MIP_Tolerances_AbsMIPGap                0
CPXPARAM_MIP_Tolerances_MIPGap                   0
Generic callback                                 0x50
Processing 1 MIP starts.
MIP start 'm1' defined solution with objective 4077.6842.
1 of 1 MIP starts provided solutions.
MIP start 'm1' defined initial solution with objective 4077.6842.
Tried aggregator 1 time.
MIP Presolve eliminated 96 rows and 67 columns.
MIP Presolve added 94 rows and 0 columns.
Reduced MIP has 2547 rows, 4834 columns, and 12131 nonzeros.
Reduced MIP has 2433 binaries, 0 generals, 0 SOSs, and 0 indicators.
Presolve time = 0.00 sec. (7.31 ticks)
Probing time = 0.01 sec. (4.04 ticks)
Cover probing fixed 32 vars, tightened 0 bounds.
Tried aggregator 1 time.
Detecting symmetries...
MIP Presolve eliminated 0 rows and 32 columns.
Reduced MIP has 2547 rows, 4802 columns, and 12099 nonzeros.
Reduced MIP has 2401 binaries, 0 generals, 0 SOSs, and 0 indicators.
Presolve time = 0.00 sec. (8.31 ticks)
Probing time = 0.02 sec. (4.01 ticks)
Clique table members: 64.
MIP emphasis: balance optimality and feasibility.
MIP search method: dynamic search.
Parallel mode: none, using 1 thread.
Tried aggregator 1 time.
Aggregator did 245 substitutions.
Reduced LP has 2302 rows, 4557 columns, and 11609 nonzeros.
Presolve time = 0.00 sec. (2.84 ticks)
Initializing dual steep norms . . .

Iteration log . . .
Iteration:     1   Dual objective     =          2908.306281
Initializing dual steep norms . . .
Root relaxation solution time = 0.02 sec. (7.41 ticks)

        Nodes                                         Cuts/
   Node  Left     Objective  IInf  Best Integer    Best Bound    ItCnt     Gap

*     0+    0                         4077.6842        0.0000           100.00%
Found incumbent of value 4077.684199 after 0.06 sec. (42.53 ticks)
      0     0     3443.7212    69     4077.6842     3443.7212      109   15.55%
      0     0     3634.8300    63     4077.6842     Cuts: 140      162   10.86%
      0     0     3808.9706    47     4077.6842      Cuts: 90      201    6.59%
      0     0     3841.3919    66     4077.6842      Cuts: 54      235    5.79%
Detecting symmetries...

Repeating presolve.
Tried aggregator 1 time.
MIP Presolve eliminated 849 rows and 1646 columns.
MIP Presolve modified 1448 coefficients.
Reduced MIP has 1698 rows, 3156 columns, and 7932 nonzeros.
Reduced MIP has 1578 binaries, 0 generals, 0 SOSs, and 0 indicators.
Presolve time = 0.03 sec. (5.20 ticks)
Probing time = 0.00 sec. (3.09 ticks)
Cover probing fixed 0 vars, tightened 70 bounds.
Tried aggregator 1 time.
Detecting symmetries...
MIP Presolve modified 70 coefficients.
Reduced MIP has 1698 rows, 3156 columns, and 7932 nonzeros.
Reduced MIP has 1578 binaries, 0 generals, 0 SOSs, and 0 indicators.
Presolve time = 0.02 sec. (5.38 ticks)
Represolve time = 0.05 sec. (22.08 ticks)
Probing fixed 0 vars, tightened 6 bounds.
Probing time = 0.03 sec. (8.77 ticks)
Cover probing fixed 0 vars, tightened 72 bounds.
Clique table members: 69.
MIP emphasis: balance optimality and feasibility.
MIP search method: dynamic search.
Parallel mode: none, using 1 thread.
Tried aggregator 1 time.
Aggregator did 60 substitutions.
Reduced LP has 1815 rows, 3096 columns, and 19161 nonzeros.
Presolve time = 0.00 sec. (2.65 ticks)
Initializing dual steep norms . . .

Iteration log . . .
Iteration:     1   Dual objective     =          2908.306281
Iteration:   126   Dual objective     =          3804.028384
Initializing dual steep norms . . .
Root relaxation solution time = 0.02 sec. (8.40 ticks)

        Nodes                                         Cuts/
   Node  Left     Objective  IInf  Best Integer    Best Bound    ItCnt     Gap

*     0+    0                         4077.6842     3841.3919             5.79%
Found incumbent of value 4077.684199 after 0.34 sec. (271.71 ticks)
      0     0     3841.5903    68     4077.6842     3841.5903      427    5.79%
      0     0     3941.1323    66     4077.6842      Cuts: 95      509    3.35%
      0     0     4005.6637    43     4077.6842      Cuts: 99      560    1.77%
      0     0     4024.6226    60     4077.6842      Cuts: 68      598    1.30%
      0     0     4031.1420    37     4077.6842      Cuts: 82      627    1.14%
      0     0     4043.5244    22     4077.6842      Cuts: 54      667    0.84%
      0     0     4052.3226    73     4077.6842      Cuts: 46      727    0.62%
      0     0     4058.6230    76     4077.6842      Cuts: 78      808    0.47%
      0     0     4063.9616    66     4077.6842     Cuts: 113      891    0.34%
      0     0     4069.2238    48     4077.6842      Cuts: 73      944    0.21%
      0     0     4071.3817    49     4077.6842      Cuts: 49     1012    0.15%
      0     0     4073.6788    52     4077.6842      Cuts: 53     1056    0.10%
      0     0     4076.1436    39     4077.6842      Cuts: 56     1093    0.04%
*     0     0      integral     0     4077.6842      Cuts: 44     1108    0.00%
Found incumbent of value 4077.684199 after 1.17 sec. (1209.03 ticks)
      0     0        cutoff           4077.6842     4077.6842     1108    0.00%
Elapsed time = 1.17 sec. (1209.03 ticks, tree = 0.01 MB, solutions = 2)

Cover cuts applied:  11
Implied bound cuts applied:  80
Flow cuts applied:  177
Mixed integer rounding cuts applied:  57
Flow path cuts applied:  18
Multi commodity flow cuts applied:  2
Lift and project cuts applied:  4
Gomory fractional cuts applied:  5

Root node processing (before b&c):
  Real time             =    1.17 sec. (1209.29 ticks)
Sequential b&c:
  Real time             =    0.00 sec. (0.00 ticks)
                          ------------
Total (root+branch&cut) =    1.17 sec. (1209.29 ticks)

--- MIP status (101): integer optimal solution.
--- Cplex Time: 1.17sec (det. 1209.30 ticks)

--- Fixing integer variables and solving final LP...

Version identifier: 20.1.0.0 | 2020-11-10 | 9bedb6d68
CPXPARAM_Advance                                 2
CPXPARAM_Threads                                 1
CPXPARAM_MIP_Display                             4
CPXPARAM_TimeLimit                               3600
CPXPARAM_MIP_Tolerances_AbsMIPGap                0
CPXPARAM_MIP_Tolerances_MIPGap                   0
Tried aggregator 1 time.
LP Presolve eliminated 2532 rows and 4884 columns.
Aggregator did 17 substitutions.
All rows and columns eliminated.
Presolve time = 0.00 sec. (1.86 ticks)

--- Fixed MIP status (1): optimal.
--- Cplex Time: 0.00sec (det. 3.07 ticks)


Proven optimal solution
MIP Solution:         4077.684199    (1108 iterations, 0 nodes)
Final Solve:          4077.684199    (0 iterations)

Best possible:        4077.684199
Absolute gap:            0.000000
Relative gap:            0.000000

--- Reading solution for model master
*** Status: Normal completion
--- Job bchfcnet.gms Stop 02/08/22 17:02:56 elapsed 0:00:01.428
